00:00.0 clingo version 5.5.1
00:00.0 Reading from ...ols/../encodings/CTW_nat_optimal_V2.lp ...
29:59.623 UNKNOWN
29:59.747 
29:59.755 TIME LIMIT   : 1
29:59.762 Models       : 0+
29:59.762 Calls        : 1
29:59.765 Time         : 1800.096s (Solving: 0.00s 1st Model: 0.00s Unsat: 0.00s)
29:59.766 CPU Time     : 116.541s
